unknown
(:binary-propagations  1686
 :decisions            262
 :del-clause           555
 :final-checks         2
 :max-generation       1
 :max-memory           31.05
 :memory               22.95
 :mk-bool-var          3560
 :mk-clause            746
 :mk-clause-binary     2005
 :num-allocs           161148740
 :num-checks           1
 :propagations         1743
 :quant-instantiations 555
 :restarts             1
 :rlimit-count         1513406
 :time                 0.30)
